p tw 29 42
1 2
1 5
2 6
3 4
3 9
4 5
4 10
5 6
5 11
6 7
6 12
7 8
7 13
9 10
9 14
10 11
10 15
11 12
11 16
12 13
12 17
13 18
14 15
14 20
15 16
15 21
16 17
16 22
17 18
18 19
18 23
19 24
20 21
20 25
21 22
22 26
23 24
23 28
24 29
26 27
27 28
28 29
